SCIP version 5.0.0 [precision: 8 byte] [memory: block] [mode: optimized] [LP solver: NONE] [GitHash: 3bbd232]
Copyright (C) 2002-2017 Konrad-Zuse-Zentrum fuer Informationstechnik Berlin (ZIB)

External codes: 
  Readline EditLine w  GNU library for command line editing (gnu.org/s/readline)
  CppAD 20160000.1     Algorithmic Differentiation of C++ algorithms developed by B. Bell (www.coin-or.org/CppAD)
  ZLIB 1.2.5           General purpose compression library by J. Gailly and M. Adler (zlib.net)
  GMP 6.1.2            GNU Multiple Precision Arithmetic Library developed by T. Granlund (gmplib.org)

user parameter file <scip.set> not found - using default parameters

read problem <../../Split_data/output/biodeg/6/4_sample_biodeg.logreg>
============

File name	:	../../Split_data/output/biodeg/6/4_sample_biodeg.logreg
Problem name 	:	4_sample_biodeg
Number of data	:	844
Number of var	:	41
The given data has linear dependence
1 sets of column vector are linearly dependent:
{ 19}, 

[dim=1] time: 0.026265
[dim=2] time: 0.055604
[dim=3] time: 0.094762
[dim=4] time: 0.134359
[dim=5] time: 0.167343
[dim=6] time: 0.195222
[dim=7] time: 0.224199
[dim=8] time: 0.253755
[dim=9] time: 0.282801
[dim=10] time: 0.309192
[dim=11] time: 0.347096
[dim=12] time: 0.381154
[dim=13] time: 0.405222
[dim=14] time: 0.430042
[dim=15] time: 0.454229
[dim=16] time: 0.487271
[dim=17] time: 0.512487
[dim=18] time: 0.544372
[dim=19] time: 0.560425
[dim=20] time: 0.576572
[dim=21] time: 0.59371
[dim=22] time: 0.609563
[dim=23] time: 0.625275
[dim=24] time: 0.638798
[dim=25] Time of forward = 0.651207sec.
AIC: 534.559
k: 24

[dim=40] time: 0.141306
[dim=39] time: 0.184625
[dim=38] time: 0.237258
[dim=37] time: 0.282182
[dim=36] time: 0.327012
[dim=35] time: 0.38863
[dim=34] time: 0.437706
[dim=33] time: 0.481282
[dim=32] time: 0.527963
[dim=31] time: 0.62376
[dim=30] time: 0.711192
[dim=29] time: 0.774528
[dim=28] time: 0.804911
[dim=27] time: 0.833789
[dim=26] time: 0.860967
[dim=25] time: 0.884662
[dim=24] time: 0.909932
[dim=23] time: 0.962708
[dim=22] Time of backward = 1.0016sec.
AIC: 532.307
k: 23
